 Code  2233
 Dimension, Fixed Cost
   100        3000
 Facility, Client, Transportation Cost
     1       10           2
     1       11           3
     1       32           1
     1       40           2
     1       44           3
     1       73           0
     1       78           1
     1       81           3
     1       93           2
     1       94           4
     2        7           2
     2       12           0
     2       23           1
     2       40           0
     2       46           1
     2       48           2
     2       55           0
     2       57           0
     2       64           4
     2       67           1
     3        6           4
     3       19           0
     3       25           1
     3       35           0
     3       42           1
     3       47           0
     3       52           1
     3       57           1
     3       61           3
     3       63           1
     4        4           0
     4       14           1
     4       17           4
     4       23           3
     4       29           4
     4       34           2
     4       38           3
     4       50           0
     4       65           4
     4       72           1
     5        2           2
     5        7           4
     5       16           0
     5       24           1
     5       26           0
     5       34           4
     5       40           1
     5       61           4
     5       74           0
     5       81           0
     6        4           0
     6        9           0
     6       44           0
     6       46           1
     6       49           0
     6       92           3
     6       93           1
     6       94           0
     6       98           2
     6       99           0
     7        2           0
     7       15           4
     7       19           4
     7       42           0
     7       43           4
     7       45           0
     7       81           3
     7       85           4
     7       98           0
     7      100           2
     8        8           3
     8       10           4
     8       25           1
     8       31           2
     8       39           2
     8       42           2
     8       64           0
     8       67           1
     8       71           2
     8       73           0
     9        3           0
     9        6           1
     9       15           3
     9       27           4
     9       43           0
     9       44           4
     9       48           3
     9       53           1
     9       59           0
     9       76           0
    10       49           1
    10       59           4
    10       83           2
    10       84           1
    10       90           3
    10       95           0
    10       97           3
    10       98           3
    10       99           4
    10      100           0
    11        5           3
    11       17           4
    11       18           2
    11       21           0
    11       31           4
    11       39           0
    11       40           3
    11       50           3
    11       51           0
    11       59           1
    12        1           0
    12       13           3
    12       43           3
    12       50           1
    12       65           1
    12       80           2
    12       85           2
    12       91           3
    12       92           1
    12       94           2
    13       11           3
    13       17           0
    13       19           0
    13       31           3
    13       42           2
    13       46           1
    13       54           4
    13       64           4
    13       72           4
    13       75           4
    14        1           2
    14        7           0
    14       18           2
    14       19           3
    14       32           0
    14       38           3
    14       45           3
    14       47           2
    14       56           4
    14       65           0
    15       10           1
    15       31           4
    15       34           0
    15       49           4
    15       52           3
    15       61           3
    15       71           2
    15       88           4
    15       97           0
    15      100           3
    16       14           2
    16       16           1
    16       17           4
    16       22           1
    16       45           1
    16       46           4
    16       47           2
    16       48           2
    16       55           1
    16       59           3
    17        5           0
    17        7           1
    17       19           2
    17       24           0
    17       26           4
    17       27           2
    17       43           0
    17       53           2
    17       56           3
    17       89           2
    18        2           2
    18       12           1
    18       23           2
    18       26           3
    18       43           1
    18       44           1
    18       45           0
    18       59           2
    18       82           2
    18       84           4
    19        9           0
    19       26           1
    19       36           4
    19       55           2
    19       65           0
    19       72           3
    19       79           3
    19       90           3
    19       93           1
    19       99           4
    20        6           4
    20       13           4
    20       25           4
    20       39           0
    20       46           4
    20       58           3
    20       71           4
    20       74           4
    20       86           3
    20       89           4
    21        3           0
    21       32           1
    21       39           4
    21       68           4
    21       73           3
    21       84           1
    21       89           0
    21       97           2
    21       98           3
    21       99           0
    22       32           1
    22       35           0
    22       62           4
    22       80           2
    22       81           0
    22       91           3
    22       93           0
    22       96           1
    22       98           4
    22       99           3
    23        3           3
    23        6           4
    23       11           3
    23       25           3
    23       27           0
    23       28           0
    23       30           1
    23       33           2
    23       38           3
    23       39           0
    24        4           2
    24       20           1
    24       21           4
    24       23           0
    24       56           0
    24       60           3
    24       76           2
    24       86           2
    24       87           1
    24       95           0
    25        2           0
    25        4           3
    25        9           0
    25       19           4
    25       22           1
    25       51           4
    25       63           2
    25       77           0
    25       79           0
    25       83           4
    26       21           4
    26       51           4
    26       85           4
    26       94           1
    26       95           0
    26       96           4
    26       97           3
    26       98           0
    26       99           1
    26      100           3
    27        7           0
    27       30           4
    27       31           4
    27       41           0
    27       56           1
    27       58           2
    27       65           4
    27       72           2
    27       90           2
    27       91           4
    28       20           0
    28       49           3
    28       52           3
    28       55           2
    28       66           4
    28       88           0
    28       89           1
    28       93           1
    28       95           4
    28       96           4
    29        8           3
    29       13           0
    29       30           0
    29       36           4
    29       45           0
    29       63           1
    29       68           1
    29       72           3
    29       79           2
    29       80           2
    30        3           0
    30       10           1
    30       13           2
    30       37           2
    30       56           3
    30       65           2
    30       75           3
    30       80           2
    30       84           0
    30       86           2
    31        1           3
    31       15           1
    31       19           3
    31       20           2
    31       21           1
    31       25           3
    31       33           3
    31       35           1
    31       37           4
    31       41           1
    32       11           0
    32       30           1
    32       36           4
    32       53           2
    32       55           2
    32       61           3
    32       72           1
    32       81           4
    32       85           1
    32       87           4
    33        6           4
    33       38           3
    33       84           0
    33       86           0
    33       90           1
    33       91           0
    33       94           2
    33       96           2
    33       97           1
    33      100           0
    34        5           1
    34       18           3
    34       28           4
    34       35           2
    34       54           0
    34       62           2
    34       80           3
    34       93           0
    34       97           0
    34      100           4
    35       16           2
    35       21           3
    35       37           1
    35       55           2
    35       56           0
    35       68           2
    35       79           4
    35       82           4
    35       95           3
    35      100           4
    36       31           2
    36       33           0
    36       44           2
    36       46           4
    36       54           4
    36       73           1
    36       74           0
    36       77           2
    36       80           4
    36       97           1
    37       28           1
    37       60           3
    37       67           0
    37       78           1
    37       83           4
    37       87           4
    37       95           4
    37       97           4
    37       99           3
    37      100           1
    38        1           4
    38       18           1
    38       24           2
    38       27           2
    38       46           2
    38       47           3
    38       51           2
    38       88           3
    38       92           3
    38       96           3
    39       26           3
    39       33           0
    39       38           2
    39       44           4
    39       48           3
    39       52           4
    39       56           1
    39       63           3
    39       68           1
    39       80           0
    40        1           1
    40        5           0
    40        8           2
    40       20           1
    40       28           4
    40       37           0
    40       57           2
    40       61           2
    40       62           3
    40       77           1
    41        1           3
    41        2           1
    41        3           4
    41       12           0
    41       32           3
    41       37           0
    41       61           0
    41       63           2
    41       70           4
    41       76           2
    42       21           2
    42       23           3
    42       25           4
    42       43           2
    42       48           2
    42       64           2
    42       67           2
    42       71           0
    42       84           1
    42       87           4
    43       11           0
    43       19           0
    43       27           2
    43       31           4
    43       41           4
    43       71           3
    43       73           0
    43       82           2
    43       84           0
    43       85           4
    44       10           3
    44       20           2
    44       35           4
    44       36           2
    44       37           3
    44       52           0
    44       55           4
    44       63           2
    44       64           0
    44       70           4
    45        1           0
    45       24           1
    45       30           3
    45       47           3
    45       49           3
    45       58           1
    45       63           2
    45       69           3
    45       83           2
    45       86           3
    46        8           4
    46       15           2
    46       40           2
    46       42           4
    46       56           4
    46       57           1
    46       60           0
    46       74           0
    46       92           3
    46       98           0
    47        3           0
    47       20           1
    47       28           3
    47       29           4
    47       51           3
    47       53           0
    47       65           3
    47       70           2
    47       71           3
    47       87           4
    48        8           2
    48        9           3
    48       11           4
    48       14           1
    48       17           4
    48       22           3
    48       25           0
    48       33           3
    48       35           1
    48       37           0
    49        8           2
    49       15           4
    49       22           2
    49       26           1
    49       34           4
    49       38           0
    49       55           0
    49       58           2
    49       72           0
    49       77           0
    50        3           3
    50        9           1
    50       36           4
    50       43           4
    50       45           1
    50       51           3
    50       52           4
    50       78           2
    50       90           3
    50       96           0
    51        3           2
    51        6           1
    51       14           1
    51       24           0
    51       32           2
    51       38           0
    51       41           4
    51       42           3
    51       54           2
    51       67           2
    52       20           2
    52       38           3
    52       69           4
    52       70           4
    52       82           1
    52       83           4
    52       91           2
    52       98           4
    52       99           0
    52      100           1
    53        6           4
    53        9           4
    53       11           3
    53       13           0
    53       20           0
    53       34           0
    53       37           3
    53       44           1
    53       45           2
    53       47           2
    54        5           3
    54       11           3
    54       16           1
    54       17           3
    54       22           2
    54       28           1
    54       34           2
    54       35           3
    54       41           2
    54       47           3
    55        5           2
    55       16           2
    55       36           3
    55       46           0
    55       49           3
    55       69           1
    55       70           2
    55       82           0
    55       83           2
    55       87           4
    56       18           3
    56       30           2
    56       34           0
    56       49           0
    56       62           3
    56       64           2
    56       66           2
    56       81           2
    56       82           1
    56       90           3
    57       23           4
    57       29           3
    57       41           2
    57       51           3
    57       52           0
    57       54           4
    57       74           0
    57       79           2
    57       81           0
    57       90           4
    58        7           1
    58       29           4
    58       43           0
    58       44           0
    58       45           1
    58       60           3
    58       71           4
    58       88           3
    58       89           2
    58       94           2
    59       13           3
    59       18           4
    59       35           0
    59       56           0
    59       62           4
    59       66           4
    59       72           4
    59       79           1
    59       80           0
    59       86           0
    60        2           1
    60        9           2
    60       17           2
    60       54           3
    60       56           4
    60       61           3
    60       70           0
    60       75           0
    60       84           0
    60       85           2
    61        1           4
    61        8           0
    61       14           2
    61       23           1
    61       46           0
    61       50           0
    61       77           0
    61       82           3
    61       94           4
    61      100           4
    62       17           0
    62       18           1
    62       21           4
    62       39           3
    62       41           1
    62       54           0
    62       57           4
    62       58           4
    62       68           3
    62       69           4
    63       29           2
    63       31           2
    63       40           4
    63       43           0
    63       47           0
    63       66           1
    63       76           1
    63       88           0
    63       95           3
    63       97           3
    64        5           0
    64        6           0
    64       14           1
    64       15           3
    64       18           1
    64       23           0
    64       57           0
    64       84           0
    64       86           4
    64       92           2
    65       14           3
    65       21           3
    65       52           0
    65       66           1
    65       74           2
    65       75           1
    65       78           1
    65       83           3
    65       84           0
    65       95           2
    66       12           3
    66       28           4
    66       53           4
    66       71           4
    66       74           1
    66       89           1
    66       93           1
    66       94           4
    66       96           3
    66       97           0
    67       10           1
    67       12           0
    67       13           3
    67       32           1
    67       44           4
    67       50           4
    67       57           2
    67       58           1
    67       64           3
    67       78           3
    68       42           4
    68       59           3
    68       64           4
    68       66           0
    68       73           0
    68       78           3
    68       88           1
    68       91           2
    68       95           1
    68       96           0
    69        2           3
    69        8           4
    69       10           0
    69       20           3
    69       24           0
    69       28           1
    69       32           2
    69       33           3
    69       75           0
    69       94           4
    70        7           3
    70       10           3
    70       28           0
    70       35           0
    70       37           2
    70       53           0
    70       67           0
    70       73           3
    70       76           0
    70       83           4
    71        2           3
    71       17           4
    71       42           0
    71       47           0
    71       48           3
    71       57           4
    71       64           0
    71       83           4
    71       90           0
    71       91           3
    72       10           1
    72       12           3
    72       15           3
    72       42           1
    72       57           2
    72       60           0
    72       65           4
    72       69           1
    72       76           4
    72       82           1
    73       22           0
    73       52           0
    73       59           2
    73       70           2
    73       76           3
    73       78           1
    73       79           1
    73       82           4
    73       86           3
    73       93           4
    74        4           3
    74        6           0
    74       11           0
    74       14           3
    74       27           4
    74       43           4
    74       58           1
    74       73           0
    74       77           2
    74       87           3
    75        3           0
    75       12           4
    75       14           4
    75       33           2
    75       40           1
    75       50           2
    75       52           1
    75       59           1
    75       60           3
    75       62           0
    76       19           0
    76       25           2
    76       33           3
    76       42           4
    76       54           0
    76       59           4
    76       72           4
    76       78           3
    76       85           4
    76       88           2
    77        5           0
    77        8           0
    77       12           1
    77       16           4
    77       19           3
    77       26           1
    77       40           0
    77       62           0
    77       73           0
    77       75           3
    78       18           4
    78       27           4
    78       29           2
    78       53           0
    78       60           4
    78       69           0
    78       75           0
    78       76           2
    78       79           2
    78       89           2
    79        5           0
    79        7           1
    79        9           4
    79       24           2
    79       25           2
    79       33           0
    79       36           3
    79       39           3
    79       46           4
    79       61           4
    80        1           3
    80        3           1
    80        4           3
    80       36           3
    80       40           3
    80       65           4
    80       74           1
    80       81           4
    80       87           2
    80       96           1
    81       11           4
    81       22           1
    81       39           1
    81       50           1
    81       57           2
    81       66           1
    81       67           0
    81       68           1
    81       89           1
    81       90           3
    82       22           3
    82       27           0
    82       29           2
    82       30           0
    82       34           3
    82       48           4
    82       63           1
    82       69           0
    82       72           2
    82       74           3
    83        9           0
    83       13           3
    83       16           2
    83       47           4
    83       70           1
    83       75           2
    83       83           4
    83       88           4
    83       91           3
    83       92           3
    84        4           0
    84       18           3
    84       30           0
    84       36           0
    84       48           2
    84       60           2
    84       62           4
    84       64           4
    84       71           2
    84       76           1
    85       15           0
    85       17           0
    85       28           0
    85       45           0
    85       48           1
    85       54           0
    85       55           1
    85       68           1
    85       80           0
    85       81           4
    86       12           3
    86       24           1
    86       26           4
    86       27           0
    86       30           3
    86       32           4
    86       34           1
    86       41           3
    86       58           0
    86       63           3
    87        2           1
    87        9           0
    87       70           0
    87       75           4
    87       82           1
    87       85           1
    87       86           3
    87       87           2
    87       88           2
    87       89           4
    88       16           4
    88       29           2
    88       33           4
    88       51           4
    88       59           0
    88       66           3
    88       77           3
    88       85           3
    88       95           1
    88       96           0
    89       23           0
    89       27           1
    89       29           3
    89       34           0
    89       74           0
    89       75           3
    89       78           0
    89       92           3
    89       93           0
    89       99           3
    90        1           4
    90       26           1
    90       60           4
    90       62           2
    90       69           1
    90       78           2
    90       79           4
    90       80           3
    90       88           1
    90       93           3
    91       10           0
    91       26           2
    91       38           1
    91       50           4
    91       62           4
    91       77           1
    91       85           1
    91       92           4
    91       98           4
    91       99           4
    92        7           0
    92       15           2
    92       29           0
    92       31           2
    92       32           1
    92       35           2
    92       39           2
    92       41           3
    92       44           0
    92       79           1
    93       21           1
    93       23           3
    93       24           3
    93       38           1
    93       40           3
    93       48           0
    93       55           0
    93       65           0
    93       69           3
    93       77           0
    94        5           3
    94       15           0
    94       20           3
    94       58           4
    94       68           0
    94       76           0
    94       77           0
    94       91           1
    94       92           1
    94       98           4
    95        4           3
    95       12           4
    95       63           4
    95       66           2
    95       70           1
    95       86           0
    95       87           1
    95       89           4
    95       92           3
    95       94           1
    96        8           3
    96       13           0
    96       14           1
    96       37           0
    96       49           2
    96       50           0
    96       51           0
    96       53           2
    96       61           4
    96       81           3
    97        4           0
    97        7           4
    97       30           0
    97       31           2
    97       45           2
    97       49           4
    97       53           4
    97       54           1
    97       61           2
    97       67           1
    98        2           3
    98       16           3
    98       22           2
    98       36           1
    98       39           2
    98       49           4
    98       60           2
    98       66           0
    98       67           2
    98       68           4
    99        6           3
    99       21           3
    99       22           0
    99       41           4
    99       58           0
    99       67           3
    99       69           1
    99       73           4
    99       90           2
    99       91           0
   100        4           3
   100       13           1
   100       16           2
   100       24           2
   100       25           4
   100       50           1
   100       51           3
   100       53           3
   100       68           4
   100       71           0
